g3 1 1 0	# problem sin_20
 20 0 1 0 0	# vars, constraints, objectives, ranges, eqns
 0 1	# nonlinear constraints, objectives
 0 0	# network constraints: nonlinear, linear
 0 20 0	# nonlinear vars in constraints, objectives, both
 0 0 0 1	# linear network variables; functions; arith, flags
 0 0 0 0 0	# discrete variables: binary, integer, nonlinear (b,c,o)
 0 20	# nonzeros in Jacobian, gradients
 0 0	# max name lengths: constraints, variables
 0 0 0 0 0	# common exprs: b,c,o,c1,o1
O0 0
o1
o2
n-2.5
o2
o2
o2
o2
o2
o2
o2
o2
o2
o2
o2
o2
o2
o2
o2
o2
o2
o2
o2
o41
o3
o2
n3.141592653589793
o1
v0
n30
n180
o41
o3
o2
n3.141592653589793
o1
v1
n30
n180
o41
o3
o2
n3.141592653589793
o1
v2
n30
n180
o41
o3
o2
n3.141592653589793
o1
v3
n30
n180
o41
o3
o2
n3.141592653589793
o1
v4
n30
n180
o41
o3
o2
n3.141592653589793
o1
v5
n30
n180
o41
o3
o2
n3.141592653589793
o1
v6
n30
n180
o41
o3
o2
n3.141592653589793
o1
v7
n30
n180
o41
o3
o2
n3.141592653589793
o1
v8
n30
n180
o41
o3
o2
n3.141592653589793
o1
v9
n30
n180
o41
o3
o2
n3.141592653589793
o1
v10
n30
n180
o41
o3
o2
n3.141592653589793
o1
v11
n30
n180
o41
o3
o2
n3.141592653589793
o1
v12
n30
n180
o41
o3
o2
n3.141592653589793
o1
v13
n30
n180
o41
o3
o2
n3.141592653589793
o1
v14
n30
n180
o41
o3
o2
n3.141592653589793
o1
v15
n30
n180
o41
o3
o2
n3.141592653589793
o1
v16
n30
n180
o41
o3
o2
n3.141592653589793
o1
v17
n30
n180
o41
o3
o2
n3.141592653589793
o1
v18
n30
n180
o41
o3
o2
n3.141592653589793
o1
v19
n30
n180
o2
o2
o2
o2
o2
o2
o2
o2
o2
o2
o2
o2
o2
o2
o2
o2
o2
o2
o2
o41
o3
o2
n3.141592653589793
o2
n5
o1
v0
n30
n180
o41
o3
o2
n3.141592653589793
o2
n5
o1
v1
n30
n180
o41
o3
o2
n3.141592653589793
o2
n5
o1
v2
n30
n180
o41
o3
o2
n3.141592653589793
o2
n5
o1
v3
n30
n180
o41
o3
o2
n3.141592653589793
o2
n5
o1
v4
n30
n180
o41
o3
o2
n3.141592653589793
o2
n5
o1
v5
n30
n180
o41
o3
o2
n3.141592653589793
o2
n5
o1
v6
n30
n180
o41
o3
o2
n3.141592653589793
o2
n5
o1
v7
n30
n180
o41
o3
o2
n3.141592653589793
o2
n5
o1
v8
n30
n180
o41
o3
o2
n3.141592653589793
o2
n5
o1
v9
n30
n180
o41
o3
o2
n3.141592653589793
o2
n5
o1
v10
n30
n180
o41
o3
o2
n3.141592653589793
o2
n5
o1
v11
n30
n180
o41
o3
o2
n3.141592653589793
o2
n5
o1
v12
n30
n180
o41
o3
o2
n3.141592653589793
o2
n5
o1
v13
n30
n180
o41
o3
o2
n3.141592653589793
o2
n5
o1
v14
n30
n180
o41
o3
o2
n3.141592653589793
o2
n5
o1
v15
n30
n180
o41
o3
o2
n3.141592653589793
o2
n5
o1
v16
n30
n180
o41
o3
o2
n3.141592653589793
o2
n5
o1
v17
n30
n180
o41
o3
o2
n3.141592653589793
o2
n5
o1
v18
n30
n180
o41
o3
o2
n3.141592653589793
o2
n5
o1
v19
n30
n180
b
0 0 180
0 0 180
0 0 180
0 0 180
0 0 180
0 0 180
0 0 180
0 0 180
0 0 180
0 0 180
0 0 180
0 0 180
0 0 180
0 0 180
0 0 180
0 0 180
0 0 180
0 0 180
0 0 180
0 0 180
k19
0
0
0
0
0
0
0
0
0
0
0
0
0
0
0
0
0
0
0
G0 20
0 0
1 0
2 0
3 0
4 0
5 0
6 0
7 0
8 0
9 0
10 0
11 0
12 0
13 0
14 0
15 0
16 0
17 0
18 0
19 0
